c strEdges: 189  randomEdges: 441 
c degrees:  2  3 
c girth: 10 max: 8.032766  
c Hgirth mixed MAXCUT instance
c generated from an undirected graph
c to solve unweighted MaxCut
p cnf 140 1260
11 66 0
-11 -66 0
11 76 0
-11 -76 0
11 43 0
-11 -43 0
1 8 0
-1 -8 0
1 37 0
-1 -37 0
1 90 0
-1 -90 0
81 19 0
-81 -19 0
81 31 0
-81 -31 0
81 47 0
-81 -47 0
110 73 0
-110 -73 0
110 8 0
-110 -8 0
53 20 0
-53 -20 0
53 119 0
-53 -119 0
24 77 0
-24 -77 0
24 32 0
-24 -32 0
24 73 0
-24 -73 0
28 91 0
-28 -91 0
28 74 0
-28 -74 0
28 132 0
-28 -132 0
26 74 0
-26 -74 0
26 119 0
-26 -119 0
113 75 0
-113 -75 0
113 130 0
-113 -130 0
105 108 0
-105 -108 0
105 100 0
-105 -100 0
105 78 0
-105 -78 0
38 80 0
-38 -80 0
38 132 0
-38 -132 0
38 49 0
-38 -49 0
10 56 0
-10 -56 0
10 140 0
-10 -140 0
128 98 0
-128 -98 0
128 127 0
-128 -127 0
128 130 0
-128 -130 0
6 48 0
-6 -48 0
6 107 0
-6 -107 0
6 73 0
-6 -73 0
87 129 0
-87 -129 0
87 27 0
-87 -27 0
87 48 0
-87 -48 0
83 130 0
-83 -130 0
83 63 0
-83 -63 0
139 64 0
-139 -64 0
139 114 0
-139 -114 0
139 86 0
-139 -86 0
30 69 0
-30 -69 0
30 134 0
-30 -134 0
30 103 0
-30 -103 0
111 55 0
-111 -55 0
111 103 0
-111 -103 0
111 29 0
-111 -29 0
135 103 0
-135 -103 0
135 33 0
-135 -33 0
68 124 0
-68 -124 0
68 138 0
-68 -138 0
106 126 0
-106 -126 0
106 92 0
-106 -92 0
106 36 0
-106 -36 0
46 35 0
-46 -35 0
46 97 0
-46 -97 0
46 129 0
-46 -129 0
71 63 0
-71 -63 0
71 37 0
-71 -37 0
44 2 0
-44 -2 0
44 93 0
-44 -93 0
44 131 0
-44 -131 0
67 27 0
-67 -27 0
67 127 0
-67 -127 0
67 79 0
-67 -79 0
118 86 0
-118 -86 0
118 124 0
-118 -124 0
118 77 0
-118 -77 0
137 117 0
-137 -117 0
137 134 0
-137 -134 0
137 100 0
-137 -100 0
13 33 0
-13 -33 0
13 9 0
-13 -9 0
85 25 0
-85 -25 0
85 131 0
-85 -131 0
60 9 0
-60 -9 0
60 121 0
-60 -121 0
60 63 0
-60 -63 0
115 76 0
-115 -76 0
115 3 0
-115 -3 0
115 98 0
-115 -98 0
120 132 0
-120 -132 0
120 66 0
-120 -66 0
120 79 0
-120 -79 0
65 93 0
-65 -93 0
65 108 0
-65 -108 0
65 3 0
-65 -3 0
96 21 0
-96 -21 0
96 129 0
-96 -129 0
82 41 0
-82 -41 0
82 17 0
-82 -17 0
82 40 0
-82 -40 0
104 119 0
-104 -119 0
104 97 0
-104 -97 0
104 114 0
-104 -114 0
136 79 0
-136 -79 0
136 69 0
-136 -69 0
136 39 0
-136 -39 0
125 47 0
-125 -47 0
125 23 0
-125 -23 0
125 39 0
-125 -39 0
116 29 0
-116 -29 0
116 58 0
-116 -58 0
116 40 0
-116 -40 0
14 131 0
-14 -131 0
14 48 0
-14 -48 0
14 123 0
-14 -123 0
5 62 0
-5 -62 0
5 20 0
-5 -20 0
5 93 0
-5 -93 0
84 134 0
-84 -134 0
84 45 0
-84 -45 0
52 40 0
-52 -40 0
52 59 0
-52 -59 0
52 64 0
-52 -64 0
7 140 0
-7 -140 0
7 59 0
-7 -59 0
34 90 0
-34 -90 0
34 35 0
-34 -35 0
34 31 0
-34 -31 0
101 97 0
-101 -97 0
101 55 0
-101 -55 0
101 25 0
-101 -25 0
89 37 0
-89 -37 0
89 56 0
-89 -56 0
94 127 0
-94 -127 0
94 117 0
-94 -117 0
51 59 0
-51 -59 0
51 21 0
-51 -21 0
61 92 0
-61 -92 0
61 140 0
-61 -140 0
61 45 0
-61 -45 0
12 3 0
-12 -3 0
12 56 0
-12 -56 0
12 49 0
-12 -49 0
109 78 0
-109 -78 0
109 126 0
-109 -126 0
109 27 0
-109 -27 0
72 36 0
-72 -36 0
72 35 0
-72 -35 0
72 80 0
-72 -80 0
18 23 0
-18 -23 0
18 78 0
-18 -78 0
54 121 0
-54 -121 0
54 4 0
-54 -4 0
54 126 0
-54 -126 0
42 49 0
-42 -49 0
42 41 0
-42 -41 0
42 75 0
-42 -75 0
112 58 0
-112 -58 0
112 121 0
-112 -121 0
112 74 0
-112 -74 0
133 45 0
-133 -45 0
133 91 0
-133 -91 0
133 124 0
-133 -124 0
15 107 0
-15 -107 0
15 76 0
-15 -76 0
15 29 0
-15 -29 0
22 114 0
-22 -114 0
22 98 0
-22 -98 0
57 32 0
-57 -32 0
57 20 0
-57 -20 0
57 75 0
-57 -75 0
99 17 0
-99 -17 0
99 138 0
-99 -138 0
99 23 0
-99 -23 0
70 31 0
-70 -31 0
70 2 0
-70 -2 0
70 117 0
-70 -117 0
16 4 0
-16 -4 0
16 19 0
-16 -19 0
16 32 0
-16 -32 0
50 43 0
-50 -43 0
50 123 0
-50 -123 0
50 33 0
-50 -33 0
88 39 0
-88 -39 0
88 62 0
-88 -62 0
88 21 0
-88 -21 0
122 100 0
-122 -100 0
122 43 0
-122 -43 0
122 64 0
-122 -64 0
95 138 0
-95 -138 0
95 25 0
-95 -25 0
102 123 0
-102 -123 0
102 80 0
-102 -80 0
1 36 0
-1 -36 0
28 42 0
-28 -42 0
10 3 0
-10 -3 0
8 37 0
-8 -37 0
44 69 0
-44 -69 0
128 57 0
-128 -57 0
64 103 0
-64 -103 0
106 129 0
-106 -129 0
101 76 0
-101 -76 0
109 49 0
-109 -49 0
100 123 0
-100 -123 0
104 125 0
-104 -125 0
9 131 0
-9 -131 0
124 86 0
-124 -86 0
68 36 0
-68 -36 0
12 119 0
-12 -119 0
42 93 0
-42 -93 0
1 76 0
-1 -76 0
10 86 0
-10 -86 0
54 138 0
-54 -138 0
118 75 0
-118 -75 0
88 131 0
-88 -131 0
118 70 0
-118 -70 0
34 92 0
-34 -92 0
34 33 0
-34 -33 0
14 75 0
-14 -75 0
34 102 0
-34 -102 0
85 27 0
-85 -27 0
94 18 0
-94 -18 0
112 47 0
-112 -47 0
64 23 0
-64 -23 0
64 45 0
-64 -45 0
86 90 0
-86 -90 0
71 77 0
-71 -77 0
120 70 0
-120 -70 0
86 45 0
-86 -45 0
60 75 0
-60 -75 0
2 121 0
-2 -121 0
95 119 0
-95 -119 0
99 75 0
-99 -75 0
87 33 0
-87 -33 0
54 64 0
-54 -64 0
135 114 0
-135 -114 0
55 3 0
-55 -3 0
6 2 0
-6 -2 0
50 79 0
-50 -79 0
113 77 0
-113 -77 0
87 77 0
-87 -77 0
135 116 0
-135 -116 0
14 129 0
-14 -129 0
134 23 0
-134 -23 0
24 4 0
-24 -4 0
92 32 0
-92 -32 0
89 133 0
-89 -133 0
109 32 0
-109 -32 0
14 66 0
-14 -66 0
119 131 0
-119 -131 0
20 43 0
-20 -43 0
134 3 0
-134 -3 0
115 108 0
-115 -108 0
110 65 0
-110 -65 0
115 29 0
-115 -29 0
24 45 0
-24 -45 0
51 9 0
-51 -9 0
101 35 0
-101 -35 0
120 123 0
-120 -123 0
106 37 0
-106 -37 0
5 76 0
-5 -76 0
134 49 0
-134 -49 0
52 92 0
-52 -92 0
110 6 0
-110 -6 0
14 78 0
-14 -78 0
107 43 0
-107 -43 0
115 39 0
-115 -39 0
133 55 0
-133 -55 0
113 67 0
-113 -67 0
27 121 0
-27 -121 0
104 35 0
-104 -35 0
73 90 0
-73 -90 0
56 36 0
-56 -36 0
60 86 0
-60 -86 0
22 75 0
-22 -75 0
139 91 0
-139 -91 0
31 123 0
-31 -123 0
122 119 0
-122 -119 0
75 56 0
-75 -56 0
18 92 0
-18 -92 0
11 53 0
-11 -53 0
119 92 0
-119 -92 0
19 86 0
-19 -86 0
72 49 0
-72 -49 0
95 126 0
-95 -126 0
36 43 0
-36 -43 0
128 27 0
-128 -27 0
46 84 0
-46 -84 0
53 134 0
-53 -134 0
116 130 0
-116 -130 0
135 2 0
-135 -2 0
96 42 0
-96 -42 0
28 96 0
-28 -96 0
1 99 0
-1 -99 0
96 49 0
-96 -49 0
135 4 0
-135 -4 0
106 72 0
-106 -72 0
14 17 0
-14 -17 0
65 84 0
-65 -84 0
18 66 0
-18 -66 0
50 29 0
-50 -29 0
56 23 0
-56 -23 0
137 94 0
-137 -94 0
87 36 0
-87 -36 0
33 131 0
-33 -131 0
128 121 0
-128 -121 0
132 114 0
-132 -114 0
116 25 0
-116 -25 0
42 47 0
-42 -47 0
83 132 0
-83 -132 0
43 39 0
-43 -39 0
8 119 0
-8 -119 0
137 124 0
-137 -124 0
12 91 0
-12 -91 0
75 138 0
-75 -138 0
18 138 0
-18 -138 0
35 78 0
-35 -78 0
122 33 0
-122 -33 0
53 67 0
-53 -67 0
130 3 0
-130 -3 0
67 58 0
-67 -58 0
71 109 0
-71 -109 0
84 124 0
-84 -124 0
108 29 0
-108 -29 0
111 62 0
-111 -62 0
135 108 0
-135 -108 0
30 100 0
-30 -100 0
83 91 0
-83 -91 0
135 43 0
-135 -43 0
135 133 0
-135 -133 0
105 80 0
-105 -80 0
11 25 0
-11 -25 0
55 90 0
-55 -90 0
118 132 0
-118 -132 0
22 3 0
-22 -3 0
25 41 0
-25 -41 0
115 27 0
-115 -27 0
88 2 0
-88 -2 0
106 41 0
-106 -41 0
56 40 0
-56 -40 0
16 25 0
-16 -25 0
44 102 0
-44 -102 0
116 48 0
-116 -48 0
54 130 0
-54 -130 0
84 77 0
-84 -77 0
12 121 0
-12 -121 0
89 55 0
-89 -55 0
61 107 0
-61 -107 0
85 124 0
-85 -124 0
47 49 0
-47 -49 0
1 21 0
-1 -21 0
10 136 0
-10 -136 0
72 108 0
-72 -108 0
70 37 0
-70 -37 0
52 107 0
-52 -107 0
50 58 0
-50 -58 0
108 45 0
-108 -45 0
21 58 0
-21 -58 0
116 121 0
-116 -121 0
133 31 0
-133 -31 0
14 42 0
-14 -42 0
89 17 0
-89 -17 0
111 56 0
-111 -56 0
129 92 0
-129 -92 0
18 123 0
-18 -123 0
102 66 0
-102 -66 0
80 79 0
-80 -79 0
48 39 0
-48 -39 0
33 21 0
-33 -21 0
99 33 0
-99 -33 0
82 18 0
-82 -18 0
82 72 0
-82 -72 0
63 40 0
-63 -40 0
80 100 0
-80 -100 0
88 56 0
-88 -56 0
5 132 0
-5 -132 0
105 136 0
-105 -136 0
69 43 0
-69 -43 0
132 93 0
-132 -93 0
101 132 0
-101 -132 0
90 138 0
-90 -138 0
2 100 0
-2 -100 0
63 76 0
-63 -76 0
70 9 0
-70 -9 0
22 127 0
-22 -127 0
128 139 0
-128 -139 0
1 139 0
-1 -139 0
64 41 0
-64 -41 0
10 89 0
-10 -89 0
26 124 0
-26 -124 0
48 103 0
-48 -103 0
60 18 0
-60 -18 0
14 2 0
-14 -2 0
57 129 0
-57 -129 0
82 80 0
-82 -80 0
108 48 0
-108 -48 0
66 9 0
-66 -9 0
82 90 0
-82 -90 0
38 109 0
-38 -109 0
70 107 0
-70 -107 0
48 45 0
-48 -45 0
51 39 0
-51 -39 0
64 32 0
-64 -32 0
98 63 0
-98 -63 0
103 59 0
-103 -59 0
68 129 0
-68 -129 0
14 41 0
-14 -41 0
83 66 0
-83 -66 0
102 74 0
-102 -74 0
139 133 0
-139 -133 0
81 105 0
-81 -105 0
96 117 0
-96 -117 0
106 80 0
-106 -80 0
83 3 0
-83 -3 0
24 20 0
-24 -20 0
95 40 0
-95 -40 0
67 31 0
-67 -31 0
90 127 0
-90 -127 0
96 125 0
-96 -125 0
34 62 0
-34 -62 0
122 4 0
-122 -4 0
63 78 0
-63 -78 0
113 116 0
-113 -116 0
1 77 0
-1 -77 0
53 76 0
-53 -76 0
61 129 0
-61 -129 0
44 58 0
-44 -58 0
55 107 0
-55 -107 0
53 3 0
-53 -3 0
6 125 0
-6 -125 0
8 140 0
-8 -140 0
52 133 0
-52 -133 0
28 94 0
-28 -94 0
121 49 0
-121 -49 0
106 66 0
-106 -66 0
85 130 0
-85 -130 0
33 79 0
-33 -79 0
129 29 0
-129 -29 0
122 134 0
-122 -134 0
61 134 0
-61 -134 0
86 3 0
-86 -3 0
72 2 0
-72 -2 0
135 46 0
-135 -46 0
46 75 0
-46 -75 0
70 47 0
-70 -47 0
86 76 0
-86 -76 0
72 32 0
-72 -32 0
6 51 0
-6 -51 0
117 43 0
-117 -43 0
128 14 0
-128 -14 0
98 4 0
-98 -4 0
133 76 0
-133 -76 0
9 3 0
-9 -3 0
87 116 0
-87 -116 0
65 56 0
-65 -56 0
7 36 0
-7 -36 0
129 37 0
-129 -37 0
108 79 0
-108 -79 0
122 86 0
-122 -86 0
94 74 0
-94 -74 0
111 41 0
-111 -41 0
36 45 0
-36 -45 0
137 62 0
-137 -62 0
98 127 0
-98 -127 0
103 100 0
-103 -100 0
81 120 0
-81 -120 0
122 80 0
-122 -80 0
105 76 0
-105 -76 0
26 99 0
-26 -99 0
85 8 0
-85 -8 0
21 3 0
-21 -3 0
20 131 0
-20 -131 0
5 133 0
-5 -133 0
19 39 0
-19 -39 0
21 79 0
-21 -79 0
46 29 0
-46 -29 0
11 107 0
-11 -107 0
69 131 0
-69 -131 0
16 69 0
-16 -69 0
93 4 0
-93 -4 0
125 48 0
-125 -48 0
67 102 0
-67 -102 0
116 89 0
-116 -89 0
51 54 0
-51 -54 0
139 90 0
-139 -90 0
110 131 0
-110 -131 0
112 15 0
-112 -15 0
139 95 0
-139 -95 0
16 39 0
-16 -39 0
97 59 0
-97 -59 0
21 41 0
-21 -41 0
28 67 0
-28 -67 0
113 61 0
-113 -61 0
104 64 0
-104 -64 0
110 63 0
-110 -63 0
94 55 0
-94 -55 0
13 72 0
-13 -72 0
4 43 0
-4 -43 0
38 19 0
-38 -19 0
91 97 0
-91 -97 0
22 29 0
-22 -29 0
92 58 0
-92 -58 0
125 8 0
-125 -8 0
80 21 0
-80 -21 0
60 39 0
-60 -39 0
71 97 0
-71 -97 0
74 39 0
-74 -39 0
134 78 0
-134 -78 0
111 17 0
-111 -17 0
132 79 0
-132 -79 0
28 9 0
-28 -9 0
65 33 0
-65 -33 0
125 12 0
-125 -12 0
115 112 0
-115 -112 0
44 39 0
-44 -39 0
28 64 0
-28 -64 0
11 37 0
-11 -37 0
20 91 0
-20 -91 0
12 72 0
-12 -72 0
1 115 0
-1 -115 0
105 106 0
-105 -106 0
77 107 0
-77 -107 0
89 70 0
-89 -70 0
15 102 0
-15 -102 0
64 123 0
-64 -123 0
99 76 0
-99 -76 0
28 12 0
-28 -12 0
115 119 0
-115 -119 0
118 7 0
-118 -7 0
96 22 0
-96 -22 0
67 89 0
-67 -89 0
65 96 0
-65 -96 0
105 34 0
-105 -34 0
18 32 0
-18 -32 0
87 55 0
-87 -55 0
55 97 0
-55 -97 0
81 59 0
-81 -59 0
51 134 0
-51 -134 0
135 32 0
-135 -32 0
106 103 0
-106 -103 0
34 57 0
-34 -57 0
60 80 0
-60 -80 0
68 92 0
-68 -92 0
111 57 0
-111 -57 0
1 91 0
-1 -91 0
72 57 0
-72 -57 0
81 62 0
-81 -62 0
94 72 0
-94 -72 0
6 135 0
-6 -135 0
89 47 0
-89 -47 0
6 41 0
-6 -41 0
1 14 0
-1 -14 0
115 79 0
-115 -79 0
6 29 0
-6 -29 0
48 33 0
-48 -33 0
35 43 0
-35 -43 0
106 65 0
-106 -65 0
24 68 0
-24 -68 0
1 100 0
-1 -100 0
66 21 0
-66 -21 0
106 140 0
-106 -140 0
75 4 0
-75 -4 0
77 25 0
-77 -25 0
108 97 0
-108 -97 0
104 93 0
-104 -93 0
12 59 0
-12 -59 0
26 105 0
-26 -105 0
91 130 0
-91 -130 0
46 89 0
-46 -89 0
124 134 0
-124 -134 0
22 9 0
-22 -9 0
8 130 0
-8 -130 0
96 50 0
-96 -50 0
42 126 0
-42 -126 0
24 125 0
-24 -125 0
71 101 0
-71 -101 0
22 91 0
-22 -91 0
118 120 0
-118 -120 0
46 124 0
-46 -124 0
71 119 0
-71 -119 0
82 20 0
-82 -20 0
13 74 0
-13 -74 0
53 107 0
-53 -107 0
134 127 0
-134 -127 0
128 37 0
-128 -37 0
45 123 0
-45 -123 0
14 22 0
-14 -22 0
80 130 0
-80 -130 0
101 108 0
-101 -108 0
24 48 0
-24 -48 0
67 54 0
-67 -54 0
91 47 0
-91 -47 0
129 40 0
-129 -40 0
65 101 0
-65 -101 0
73 108 0
-73 -108 0
82 131 0
-82 -131 0
73 41 0
-73 -41 0
28 111 0
-28 -111 0
105 118 0
-105 -118 0
57 77 0
-57 -77 0
42 108 0
-42 -108 0
72 99 0
-72 -99 0
102 32 0
-102 -32 0
9 29 0
-9 -29 0
2 114 0
-2 -114 0
105 99 0
-105 -99 0
5 124 0
-5 -124 0
1 4 0
-1 -4 0
131 39 0
-131 -39 0
49 32 0
-49 -32 0
110 23 0
-110 -23 0
28 7 0
-28 -7 0
1 12 0
-1 -12 0
72 140 0
-72 -140 0
34 112 0
-34 -112 0
46 115 0
-46 -115 0
68 101 0
-68 -101 0
30 59 0
-30 -59 0
83 119 0
-83 -119 0
13 65 0
-13 -65 0
68 107 0
-68 -107 0
87 41 0
-87 -41 0
113 42 0
-113 -42 0
69 86 0
-69 -86 0
104 34 0
-104 -34 0
57 99 0
-57 -99 0
83 101 0
-83 -101 0
65 52 0
-65 -52 0
68 40 0
-68 -40 0
10 115 0
-10 -115 0
33 4 0
-33 -4 0
26 133 0
-26 -133 0
87 80 0
-87 -80 0
35 41 0
-35 -41 0
